benchmarks/max_two/hard.solution
Problem: max_two
Difficulty: hard
Type: DEBUG SOLUTION (Expected)
Status: VERIFIED
Solution: ifelse(x > y, x, y)

Verification Result:
    ✓ VERIFIED: All constraints satisfied
Z3 Status: unsat
